    1C
    1UUSER                                                              
    1UDATE              12.january.2014                                 
    1UTIME              20:24:10                                        
    1UHOST                                                              
    1UPGM               CalculiX                                        
    1UDIR                                                               
    1UDBN                                                               
    2C                            52                                     1
 -1       106 0.00000E+00 1.00000E-03 1.00000E-03
 -1       107 0.00000E+00-1.00000E-03 1.00000E-03
 -1       108 0.00000E+00-1.00000E-03-1.00000E-03
 -1       109 0.00000E+00 1.00000E-03-1.00000E-03
 -1       114-8.66019E-04 5.00011E-04 1.00000E-03
 -1       115 8.66019E-04-5.00011E-04 1.00000E-03
 -1       116 8.66019E-04-5.00011E-04-1.00000E-03
 -1       117-8.66019E-04 5.00011E-04-1.00000E-03
 -1       140 1.00000E+00 1.00000E-03 1.00000E-03
 -1       141 1.00000E+00-1.00000E-03 1.00000E-03
 -1       142 1.00000E+00-1.00000E-03-1.00000E-03
 -1       143 1.00000E+00 1.00000E-03-1.00000E-03
 -1       148 9.99134E-01-5.00011E-04 1.00000E-03
 -1       149 1.00087E+00 5.00011E-04 1.00000E-03
 -1       150 1.00087E+00 5.00011E-04-1.00000E-03
 -1       151 9.99134E-01-5.00011E-04-1.00000E-03
 -1       156 9.99134E-01 5.00011E-04 1.00000E-03
 -1       157 1.00087E+00-5.00011E-04 1.00000E-03
 -1       158 1.00087E+00-5.00011E-04-1.00000E-03
 -1       159 9.99134E-01 5.00011E-04-1.00000E-03
 -1       190 2.00000E+00 1.00000E-03 1.00000E-03
 -1       191 2.00000E+00-1.00000E-03 1.00000E-03
 -1       192 2.00000E+00-1.00000E-03-1.00000E-03
 -1       193 2.00000E+00 1.00000E-03-1.00000E-03
 -1       198 1.99913E+00-5.00011E-04 1.00000E-03
 -1       199 2.00087E+00 5.00011E-04 1.00000E-03
 -1       200 2.00087E+00 5.00011E-04-1.00000E-03
 -1       201 1.99913E+00-5.00011E-04-1.00000E-03
 -1       224 4.99134E-01 8.66500E-01 1.00000E-03
 -1       225 5.00866E-01 8.65500E-01 1.00000E-03
 -1       226 5.00866E-01 8.65500E-01-1.00000E-03
 -1       227 4.99134E-01 8.66500E-01-1.00000E-03
 -1       232 4.99134E-01 8.65500E-01 1.00000E-03
 -1       233 5.00866E-01 8.66500E-01 1.00000E-03
 -1       234 5.00866E-01 8.66500E-01-1.00000E-03
 -1       235 4.99134E-01 8.65500E-01-1.00000E-03
 -1       240 5.00000E-01 8.67000E-01 1.00000E-03
 -1       241 5.00000E-01 8.65000E-01 1.00000E-03
 -1       242 5.00000E-01 8.65000E-01-1.00000E-03
 -1       243 5.00000E-01 8.67000E-01-1.00000E-03
 -1       274 1.49913E+00 8.66500E-01 1.00000E-03
 -1       275 1.50087E+00 8.65500E-01 1.00000E-03
 -1       276 1.50087E+00 8.65500E-01-1.00000E-03
 -1       277 1.49913E+00 8.66500E-01-1.00000E-03
 -1       282 1.49913E+00 8.65500E-01 1.00000E-03
 -1       283 1.50087E+00 8.66500E-01 1.00000E-03
 -1       284 1.50087E+00 8.66500E-01-1.00000E-03
 -1       285 1.49913E+00 8.65500E-01-1.00000E-03
 -1       290 1.50000E+00 8.67000E-01 1.00000E-03
 -1       291 1.50000E+00 8.65000E-01 1.00000E-03
 -1       292 1.50000E+00 8.65000E-01-1.00000E-03
 -1       293 1.50000E+00 8.67000E-01-1.00000E-03
 -3
    3C                             7                                     1
 -1        11    1    0STEEL
 -2       106       140       141       107       109       143       142       108
 -1        12    1    0STEEL
 -2       140       190       191       141       143       193       192       142
 -1        13    1    0STEEL
 -2       114       224       225       115       117       227       226       116
 -1        14    1    0STEEL
 -2       148       232       233       149       151       235       234       150
 -1        15    1    0STEEL
 -2       156       274       275       157       159       277       276       158
 -1        16    1    0STEEL
 -2       198       282       283       199       201       285       284       200
 -1        17    1    0STEEL
 -2       240       290       291       241       243       293       292       242
 -3
    1PSTEP                         1           1           1          
  100CL  101 1.000000000          52                     0    1           1
 -4  STRESS      6    1
 -5  SXX         1    4    1    1
 -5  SYY         1    4    2    2
 -5  SZZ         1    4    3    3
 -5  SXY         1    4    1    2
 -5  SYZ         1    4    2    3
 -5  SZX         1    4    3    1
 -1       106 2.31745E+08-4.97730E+07-4.97730E+07-7.90100E+08 5.11567E-06-1.22156E-03
 -1       107 2.31745E+08-4.97730E+07-4.97730E+07-7.90100E+08 5.11567E-06-1.22156E-03
 -1       108 2.31745E+08-4.97730E+07-4.97730E+07-7.90100E+08 5.11567E-06-1.22156E-03
 -1       109 2.31745E+08-4.97730E+07-4.97730E+07-7.90100E+08 5.11567E-06-1.22156E-03
 -1       114-1.86321E+07-6.56594E+08 4.43043E+07-2.56841E+08-5.38441E-03-3.11559E-03
 -1       115-1.86321E+07-6.56594E+08 4.43043E+07-2.56841E+08-5.38441E-03-3.11559E-03
 -1       116-1.86321E+07-6.56594E+08 4.43043E+07-2.56841E+08-5.38441E-03-3.11559E-03
 -1       117-1.86321E+07-6.56594E+08 4.43043E+07-2.56841E+08-5.38441E-03-3.11559E-03
 -1       140 4.85601E+08-1.51638E+07-1.51638E+07-2.26203E+08 5.12210E-06 1.75367E-03
 -1       141 4.85601E+08-1.51638E+07-1.51638E+07-2.26203E+08 5.12210E-06 1.75367E-03
 -1       142 4.85601E+08-1.51638E+07-1.51638E+07-2.26203E+08 5.12210E-06 1.75367E-03
 -1       143 4.85601E+08-1.51638E+07-1.51638E+07-2.26203E+08 5.12210E-06 1.75367E-03
 -1       148 3.20350E+08 5.52988E+08-8.59889E+06-4.46990E+08 3.20346E-03-1.85813E-03
 -1       149 3.20350E+08 5.52988E+08-8.59889E+06-4.46990E+08 3.20346E-03-1.85813E-03
 -1       150 3.20350E+08 5.52988E+08-8.59889E+06-4.46990E+08 3.20346E-03-1.85813E-03
 -1       151 3.20350E+08 5.52988E+08-8.59889E+06-4.46990E+08 3.20346E-03-1.85813E-03
 -1       156-7.06361E+07 7.23505E+08 5.30179E+07 8.64743E+07-1.07456E-03-6.22627E-04
 -1       157-7.06361E+07 7.23505E+08 5.30179E+07 8.64743E+07-1.07456E-03-6.22627E-04
 -1       158-7.06361E+07 7.23505E+08 5.30179E+07 8.64743E+07-1.07456E-03-6.22627E-04
 -1       159-7.06361E+07 7.23505E+08 5.30179E+07 8.64743E+07-1.07456E-03-6.22627E-04
 -1       190 7.39456E+08 1.94453E+07 1.94453E+07 3.37695E+08 5.12853E-06 4.72891E-03
 -1       191 7.39456E+08 1.94453E+07 1.94453E+07 3.37695E+08 5.12853E-06 4.72891E-03
 -1       192 7.39456E+08 1.94453E+07 1.94453E+07 3.37695E+08 5.12853E-06 4.72891E-03
 -1       193 7.39456E+08 1.94453E+07 1.94453E+07 3.37695E+08 5.12853E-06 4.72891E-03
 -1       198-5.17526E+08-4.59143E+08-2.22317E+07 5.55054E+08 1.93601E-04-1.16022E-04
 -1       199-5.17526E+08-4.59143E+08-2.22317E+07 5.55054E+08 1.93601E-04-1.16022E-04
 -1       200-5.17526E+08-4.59143E+08-2.22317E+07 5.55054E+08 1.93601E-04-1.16022E-04
 -1       201-5.17526E+08-4.59143E+08-2.22317E+07 5.55054E+08 1.93601E-04-1.16022E-04
 -1       224-1.86321E+07-6.56594E+08 4.43043E+07-2.56841E+08-5.38441E-03-3.11559E-03
 -1       225-1.86321E+07-6.56594E+08 4.43043E+07-2.56841E+08-5.38441E-03-3.11559E-03
 -1       226-1.86321E+07-6.56594E+08 4.43043E+07-2.56841E+08-5.38441E-03-3.11559E-03
 -1       227-1.86321E+07-6.56594E+08 4.43043E+07-2.56841E+08-5.38441E-03-3.11559E-03
 -1       232 3.20350E+08 5.52988E+08-8.59889E+06-4.46990E+08 3.20346E-03-1.85813E-03
 -1       233 3.20350E+08 5.52988E+08-8.59889E+06-4.46990E+08 3.20346E-03-1.85813E-03
 -1       234 3.20350E+08 5.52988E+08-8.59889E+06-4.46990E+08 3.20346E-03-1.85813E-03
 -1       235 3.20350E+08 5.52988E+08-8.59889E+06-4.46990E+08 3.20346E-03-1.85813E-03
 -1       240-7.79026E+08-3.61625E+07-3.61625E+07 5.35229E+06 1.44033E-06 3.38546E-03
 -1       241-7.79026E+08-3.61625E+07-3.61625E+07 5.35229E+06 1.44033E-06 3.38546E-03
 -1       242-7.79026E+08-3.61625E+07-3.61625E+07 5.35229E+06 1.44033E-06 3.38546E-03
 -1       243-7.79026E+08-3.61625E+07-3.61625E+07 5.35229E+06 1.44033E-06 3.38546E-03
 -1       274-7.06361E+07 7.23505E+08 5.30179E+07 8.64743E+07-1.07456E-03-6.22627E-04
 -1       275-7.06361E+07 7.23505E+08 5.30179E+07 8.64743E+07-1.07456E-03-6.22627E-04
 -1       276-7.06361E+07 7.23505E+08 5.30179E+07 8.64743E+07-1.07456E-03-6.22627E-04
 -1       277-7.06361E+07 7.23505E+08 5.30179E+07 8.64743E+07-1.07456E-03-6.22627E-04
 -1       282-5.17526E+08-4.59143E+08-2.22317E+07 5.55054E+08 1.93601E-04-1.16022E-04
 -1       283-5.17526E+08-4.59143E+08-2.22317E+07 5.55054E+08 1.93601E-04-1.16022E-04
 -1       284-5.17526E+08-4.59143E+08-2.22317E+07 5.55054E+08 1.93601E-04-1.16022E-04
 -1       285-5.17526E+08-4.59143E+08-2.22317E+07 5.55054E+08 1.93601E-04-1.16022E-04
 -1       290-7.79026E+08-3.61625E+07-3.61625E+07 5.35229E+06 1.44033E-06 3.38546E-03
 -1       291-7.79026E+08-3.61625E+07-3.61625E+07 5.35229E+06 1.44033E-06 3.38546E-03
 -1       292-7.79026E+08-3.61625E+07-3.61625E+07 5.35229E+06 1.44033E-06 3.38546E-03
 -1       293-7.79026E+08-3.61625E+07-3.61625E+07 5.35229E+06 1.44033E-06 3.38546E-03
 -3
 9999
